14
91
0 1 12
0 2 39
0 3 50
0 4 36
0 5 16
0 6 68
0 7 38
0 8 51
0 9 37
0 10 39
0 11 104
0 12 72
0 13 68
1 2 45
1 3 38
1 4 42
1 5 22
1 6 74
1 7 50
1 8 57
1 9 25
1 10 45
1 11 98
1 12 60
1 13 62
2 3 81
2 4 35
2 5 23
2 6 43
2 7 29
2 8 20
2 9 66
2 10 40
2 11 143
2 12 81
2 13 107
3 4 78
3 5 58
3 6 110
3 7 88
3 8 93
3 9 15
3 10 81
3 11 62
3 12 60
3 13 26
4 5 32
4 6 32
4 7 64
4 8 15
4 9 63
4 10 5
4 11 140
4 12 46
4 13 104
5 6 52
5 7 32
5 8 35
5 9 43
5 10 37
5 11 120
5 12 78
5 13 84
6 7 72
6 8 23
6 9 95
6 10 29
6 11 172
6 12 50
6 13 136
7 8 49
7 9 75
7 10 69
7 11 120
7 12 110
7 13 92
8 9 78
8 10 20
8 11 155
8 12 61
8 13 119
9 10 66
9 11 77
9 12 45
9 13 41
10 11 143
10 12 41
10 13 107
11 12 122
11 13 36
12 13 86
